<number of tasks>
50

<cycle time>
1000

<order strength>
0.595


<task times>
1 108
2 266
3 320
4 141
5 167
6 287
7 97
8 56
9 127
10 142
11 104
12 39
13 293
14 261
15 116
16 177
17 456
18 32
19 565
20 80
21 87
22 492
23 360
24 124
25 198
26 339
27 82
28 251
29 123
30 117
31 77
32 142
33 279
34 234
35 219
36 402
37 292
38 174
39 187
40 411
41 36
42 209
43 507
44 303
45 29
46 88
47 171
48 298
49 200
50 129

<precedence relations>
1,7
1,12
2,27
3,10
3,11
4,8
4,22
5,7
5,8
5,9
6,8
6,9
7,13
7,14
7,15
7,16
8,13
8,23
10,18
10,32
11,27
12,16
12,24
12,31
13,17
13,18
13,19
13,21
13,26
14,18
14,19
14,26
15,20
16,22
16,23
16,30
17,24
17,25
17,28
18,24
18,25
18,36
19,24
19,25
19,27
20,26
22,37
22,42
23,26
24,30
26,28
27,28
27,29
27,31
28,32
28,33
28,35
28,38
29,32
30,34
31,32
32,37
32,43
34,37
34,38
35,36
36,42
36,46
36,49
37,41
38,39
38,40
38,49
39,43
39,44
39,50
40,42
40,46
41,45
42,50
43,46
43,47
43,48
45,49

<end>
